Maximize
F - ff - gg

Subject to
F - f1 - f2 - f3 - f4 = 0
f1 - 20X3 - 40X9 - 30X59 - 10X118 - 40X130 - 30X150 - 40X173 = 0
f2 - 10.0Y3 - 20.0Y9 - 20.0Y130 - 15.0Y150 - 20.0Y173 = 0
f3 - 3.0Z118 - 9.0Z150 = 0
f4 - 6.0V59 - 2.0V118 = 0

ff - 0.009539s3 - 0.009539s9 - 0.009539s59 - 0.009539s118 - 0.009539s130 - 0.009539s150 - 0.009539s173 
- 0.009539t3 - 0.009539t9 - 0.009539t130 - 0.009539t150 - 0.009539t173 
- 0.009539u118 - 0.009539u150 
- 0.009539r59 - 0.009539r118 
= 0
gg - 2.316578Y3 - 1.141158Y9 - 1.099666Y130 - 3.147865Y150 - 1.514660Y173 
- 2.720622Z118 - 2.063865Z150 
- 2.821408V59 - 1.916622V118 = 0

n1 - X3 - X9 - X59 - X118 - X130 - X150 - X173 = 0
n2 - Y3 - Y9 - Y130 - Y150 - Y173 = 0
n3 - Z118 - Z150 = 0
n4 - V59 - V118 = 0

X3 + Y3 <= 1
X9 + Y9 <= 1
X130 + Y130 <= 1
X150 + Y150 <= 1
X173 + Y173 <= 1

X118 + Z118 <= 1
X150 + Z150 <= 1

X59 + V59 <= 1
X118 + V118 <= 1

x108x3x1 + x108x59x1 + x108x118x1 + x108x150x1 + x108x173x1 
+ y108y3y1 + y108y150y1 + y108y173y1 
<= 2

x5x3x1 + x5x59x1 + x5x118x1 + x5x150x1 + x5x173x1 
+ y5y3y1 + y5y150y1 + y5y173y1 
<= 2



x164x3x1 + x164x59x1 + x164x118x1 + x164x150x1 + x164x173x1 
+ y164y3y1 + y164y150y1 + y164y173y1 
<= 2






x115x9x2 + x115x118x2 + x115x130x2 
+ y115y9y2 + y115y130y2 
<= 2
x194x9x2 + x194x118x2 + x194x130x2 
+ y194y9y2 + y194y130y2 
<= 2


x76x9x2 + x76x118x2 + x76x130x2 
+ y76y9y2 + y76y130y2 
<= 1
x134x9x2 + x134x118x2 + x134x130x2 
+ y134y9y2 + y134y130y2 
<= 1


x52x3x3 + x52x173x3 
+ y52y3y3 + y52y173y3 
<= 1



x55x3x3 + x55x173x3 
+ y55y3y3 + y55y173y3 
<= 2

x76x3x3 + x76x173x3 
+ y76y3y3 + y76y173y3 
<= 1
x134x3x3 + x134x173x3 
+ y134y3y3 + y134y173y3 
<= 1
x151x3x3 + x151x173x3 
+ y151y3y3 + y151y173y3 
<= 1
x108x3x1 + x108x59x1 + x108x118x1 + x108x150x1 + x108x173x1 
+ z108z118z1 + z108z150z1 
<= 2

x5x3x1 + x5x59x1 + x5x118x1 + x5x150x1 + x5x173x1 
+ z5z118z1 + z5z150z1 
<= 2



x164x3x1 + x164x59x1 + x164x118x1 + x164x150x1 + x164x173x1 
+ z164z118z1 + z164z150z1 
<= 2






x115x9x2 + x115x118x2 + x115x130x2 
+ z115z118z2 
<= 2
x194x9x2 + x194x118x2 + x194x130x2 
+ z194z118z2 
<= 2


x76x9x2 + x76x118x2 + x76x130x2 
+ z76z118z2 
<= 1
x134x9x2 + x134x118x2 + x134x130x2 
+ z134z118z2 
<= 1


x52x3x3 + x52x173x3 

<= 1



x55x3x3 + x55x173x3 

<= 2

x76x3x3 + x76x173x3 

<= 1
x134x3x3 + x134x173x3 

<= 1
x151x3x3 + x151x173x3 

<= 1
x108x3x1 + x108x59x1 + x108x118x1 + x108x150x1 + x108x173x1 
+ v108v59v1 + v108v118v1 
<= 2

x5x3x1 + x5x59x1 + x5x118x1 + x5x150x1 + x5x173x1 
+ v5v59v1 + v5v118v1 
<= 2



x164x3x1 + x164x59x1 + x164x118x1 + x164x150x1 + x164x173x1 
+ v164v59v1 + v164v118v1 
<= 2






x115x9x2 + x115x118x2 + x115x130x2 
+ v115v118v2 
<= 2
x194x9x2 + x194x118x2 + x194x130x2 
+ v194v118v2 
<= 2


x76x9x2 + x76x118x2 + x76x130x2 
+ v76v118v2 
<= 1
x134x9x2 + x134x118x2 + x134x130x2 
+ v134v118v2 
<= 1


x52x3x3 + x52x173x3 

<= 1



x55x3x3 + x55x173x3 

<= 2

x76x3x3 + x76x173x3 

<= 1
x134x3x3 + x134x173x3 

<= 1
x151x3x3 + x151x173x3 

<= 1
x108x3x1 + x5x3x1 + x164x3x1 
+ y108y3y1 + y5y3y1 + y164y3y1 + y59y3y1 + y118y3y1 
- x3x173x1 
- y3y173y1 - y3y0y1
= 0
x52x3x3 + x55x3x3 + x76x3x3 + x134x3x3 + x151x3x3 
+ y52y3y3 + y55y3y3 + y76y3y3 + y134y3y3 + y151y3y3 
- x3x173x3 
- y3y173y3 - y3y0y3
= 0

x115x9x2 + x194x9x2 + x76x9x2 + x134x9x2 
+ y115y9y2 + y194y9y2 + y76y9y2 + y134y9y2 + y118y9y2 
= 0

x108x59x1 + x5x59x1 + x164x59x1 
- x59x118x1 
- y59y3y1 - y59y150y1 - y59y173y1 - y59y0y1
= 0

x108x118x1 + x5x118x1 + x164x118x1 + x59x118x1 + x150x118x1 
- y118y3y1 - y118y150y1 - y118y173y1 - y118y0y1
= 0
x115x118x2 + x194x118x2 + x76x118x2 + x134x118x2 
- y118y9y2 - y118y130y2 - y118y0y2
= 0

x115x130x2 + x194x130x2 + x76x130x2 + x134x130x2 
+ y115y130y2 + y194y130y2 + y76y130y2 + y134y130y2 + y118y130y2 
= 0

x108x150x1 + x5x150x1 + x164x150x1 
+ y108y150y1 + y5y150y1 + y164y150y1 + y59y150y1 + y118y150y1 
- x150x118x1 
- y150y173y1 - y150y0y1
= 0

x108x173x1 + x5x173x1 + x164x173x1 + x3x173x1 
+ y108y173y1 + y5y173y1 + y164y173y1 + y3y173y1 + y59y173y1 + y118y173y1 + y150y173y1 
= 0
x52x173x3 + x55x173x3 + x76x173x3 + x134x173x3 + x151x173x3 + x3x173x3 
+ y52y173y3 + y55y173y3 + y76y173y3 + y134y173y3 + y151y173y3 + y3y173y3 
= 0


x108x3x1 + x5x3x1 + x164x3x1 
- x3x173x1 
- z3z118z1 - z3z150z1 - z3z0z1
= 0
x52x3x3 + x55x3x3 + x76x3x3 + x134x3x3 + x151x3x3 
- x3x173x3 
= 0

x115x9x2 + x194x9x2 + x76x9x2 + x134x9x2 
- z9z118z2 - z9z0z2
= 0

x108x59x1 + x5x59x1 + x164x59x1 
- x59x118x1 
- z59z118z1 - z59z150z1 - z59z0z1
= 0

x108x118x1 + x5x118x1 + x164x118x1 + x59x118x1 + x150x118x1 
+ z108z118z1 + z5z118z1 + z164z118z1 + z3z118z1 + z59z118z1 + z150z118z1 + z173z118z1 
= 0
x115x118x2 + x194x118x2 + x76x118x2 + x134x118x2 
+ z115z118z2 + z194z118z2 + z76z118z2 + z134z118z2 + z9z118z2 + z130z118z2 
= 0

x115x130x2 + x194x130x2 + x76x130x2 + x134x130x2 
- z130z118z2 - z130z0z2
= 0

x108x150x1 + x5x150x1 + x164x150x1 
+ z108z150z1 + z5z150z1 + z164z150z1 + z3z150z1 + z59z150z1 + z173z150z1 
- x150x118x1 
- z150z118z1 - z150z0z1
= 0

x108x173x1 + x5x173x1 + x164x173x1 + x3x173x1 
- z173z118z1 - z173z150z1 - z173z0z1
= 0
x52x173x3 + x55x173x3 + x76x173x3 + x134x173x3 + x151x173x3 + x3x173x3 
= 0


x108x3x1 + x5x3x1 + x164x3x1 
- x3x173x1 
- v3v59v1 - v3v118v1 - v3v0v1
= 0
x52x3x3 + x55x3x3 + x76x3x3 + x134x3x3 + x151x3x3 
- x3x173x3 
= 0

x115x9x2 + x194x9x2 + x76x9x2 + x134x9x2 
- v9v118v2 - v9v0v2
= 0

x108x59x1 + x5x59x1 + x164x59x1 
+ v108v59v1 + v5v59v1 + v164v59v1 + v3v59v1 + v150v59v1 + v173v59v1 
- x59x118x1 
- v59v118v1 - v59v0v1
= 0

x108x118x1 + x5x118x1 + x164x118x1 + x59x118x1 + x150x118x1 
+ v108v118v1 + v5v118v1 + v164v118v1 + v3v118v1 + v59v118v1 + v150v118v1 + v173v118v1 
= 0
x115x118x2 + x194x118x2 + x76x118x2 + x134x118x2 
+ v115v118v2 + v194v118v2 + v76v118v2 + v134v118v2 + v9v118v2 + v130v118v2 
= 0

x115x130x2 + x194x130x2 + x76x130x2 + x134x130x2 
- v130v118v2 - v130v0v2
= 0

x108x150x1 + x5x150x1 + x164x150x1 
- x150x118x1 
- v150v59v1 - v150v118v1 - v150v0v1
= 0

x108x173x1 + x5x173x1 + x164x173x1 + x3x173x1 
- v173v59v1 - v173v118v1 - v173v0v1
= 0
x52x173x3 + x55x173x3 + x76x173x3 + x134x173x3 + x151x173x3 + x3x173x3 
= 0


1X3 - x108x3x1 - x5x3x1 - x164x3x1 = 0
1X3 - x52x3x3 - x55x3x3 - x76x3x3 - x134x3x3 - x151x3x3 = 0
2X9 - x115x9x2 - x194x9x2 - x76x9x2 - x134x9x2 = 0
2X59 - x108x59x1 - x5x59x1 - x164x59x1 = 0
1X118 - x108x118x1 - x5x118x1 - x164x118x1 - x59x118x1 - x150x118x1 = 0
1X118 - x115x118x2 - x194x118x2 - x76x118x2 - x134x118x2 = 0
2X130 - x115x130x2 - x194x130x2 - x76x130x2 - x134x130x2 = 0
2X150 - x108x150x1 - x5x150x1 - x164x150x1 = 0
1X173 - x108x173x1 - x5x173x1 - x164x173x1 - x3x173x1 = 0
1X173 - x52x173x3 - x55x173x3 - x76x173x3 - x134x173x3 - x151x173x3 - x3x173x3 = 0

1Y3 - y108y3y1 - y5y3y1 - y164y3y1 - y59y3y1 - y118y3y1 = 0
1Y3 - y52y3y3 - y55y3y3 - y76y3y3 - y134y3y3 - y151y3y3 = 0
2Y9 - y115y9y2 - y194y9y2 - y76y9y2 - y134y9y2 - y118y9y2 = 0
2Y130 - y115y130y2 - y194y130y2 - y76y130y2 - y134y130y2 - y118y130y2 = 0
2Y150 - y108y150y1 - y5y150y1 - y164y150y1 - y59y150y1 - y118y150y1 = 0
1Y173 - y108y173y1 - y5y173y1 - y164y173y1 - y3y173y1 - y59y173y1 - y118y173y1 - y150y173y1 = 0
1Y173 - y52y173y3 - y55y173y3 - y76y173y3 - y134y173y3 - y151y173y3 - y3y173y3 = 0

1Z118 - z108z118z1 - z5z118z1 - z164z118z1 - z3z118z1 - z59z118z1 - z150z118z1 - z173z118z1 = 0
1Z118 - z115z118z2 - z194z118z2 - z76z118z2 - z134z118z2 - z9z118z2 - z130z118z2 = 0
2Z150 - z108z150z1 - z5z150z1 - z164z150z1 - z3z150z1 - z59z150z1 - z173z150z1 = 0

2V59 - v108v59v1 - v5v59v1 - v164v59v1 - v3v59v1 - v150v59v1 - v173v59v1 = 0
1V118 - v108v118v1 - v5v118v1 - v164v118v1 - v3v118v1 - v59v118v1 - v150v118v1 - v173v118v1 = 0
1V118 - v115v118v2 - v194v118v2 - v76v118v2 - v134v118v2 - v9v118v2 - v130v118v2 = 0


s108 - s3 + 6.127275a108a3a1 <= 4.93
s108 - s59 + 6.561147a108a59a1 <= 4.93
s108 - s118 + 6.545918a108a118a1 <= 4.93
s108 - s150 + 6.387256a108a150a1 <= 4.93
s108 - s173 + 6.267432a108a173a1 <= 4.93
s52 - s3 + 5.386727a52a3a3 <= 4.13
s52 - s173 + 5.532844a52a173a3 <= 4.13
s5 - s3 + 7.011003a5a3a1 <= 5.13
s5 - s59 + 6.725225a5a59a1 <= 5.13
s5 - s118 + 6.867642a5a118a1 <= 5.13
s5 - s150 + 6.923393a5a150a1 <= 5.13
s5 - s173 + 7.123643a5a173a1 <= 5.13
s115 - s9 + 6.170563a115a9a2 <= 4.93
s115 - s118 + 6.462053a115a118a2 <= 4.93
s115 - s130 + 6.185293a115a130a2 <= 4.93
s194 - s9 + 6.307382a194a9a2 <= 4.95
s194 - s118 + 6.341836a194a118a2 <= 4.95
s194 - s130 + 6.317828a194a130a2 <= 4.95
s55 - s3 + 6.364930a55a3a3 <= 4.98
s55 - s173 + 6.467454a55a173a3 <= 4.98
s164 - s3 + 6.405142a164a3a1 <= 5.29
s164 - s59 + 6.657198a164a59a1 <= 5.29
s164 - s118 + 6.640340a164a118a1 <= 5.29
s164 - s150 + 6.492064a164a150a1 <= 5.29
s164 - s173 + 6.525607a164a173a1 <= 5.29
s76 - s3 + 6.817919a76a3a3 <= 5.76
s76 - s9 + 6.945772a76a9a2 <= 5.76
s76 - s118 + 7.126098a76a118a2 <= 5.76
s76 - s130 + 6.954896a76a130a2 <= 5.76
s76 - s173 + 6.925118a76a173a3 <= 5.76
s134 - s3 + 6.984260a134a3a3 <= 5.84
s134 - s9 + 7.047996a134a9a2 <= 5.84
s134 - s118 + 7.125402a134a118a2 <= 5.84
s134 - s130 + 7.051261a134a130a2 <= 5.84
s134 - s173 + 6.995997a134a173a3 <= 5.84
s151 - s3 + 5.041630a151a3a3 <= 3.52
s151 - s173 + 5.163364a151a173a3 <= 3.52
s3 - s173 + 7.453077a3a173a1 <= 6.28
s3 - s173 + 7.453077a3a173a3 <= 6.28
s59 - s118 + 7.462517a59a118a1 <= 6.32
s150 - s118 + 7.277199a150a118a1 <= 6.11

t108 - t3 + 6.127275b108b3b1 <= 4.93
t108 - t150 + 6.387256b108b150b1 <= 4.93
t108 - t173 + 6.267432b108b173b1 <= 4.93
t52 - t3 + 5.386727b52b3b3 <= 4.13
t52 - t173 + 5.532844b52b173b3 <= 4.13
t5 - t3 + 7.011003b5b3b1 <= 5.13
t5 - t150 + 6.923393b5b150b1 <= 5.13
t5 - t173 + 7.123643b5b173b1 <= 5.13
t115 - t9 + 6.170563b115b9b2 <= 4.93
t115 - t130 + 6.185293b115b130b2 <= 4.93
t194 - t9 + 6.307382b194b9b2 <= 4.95
t194 - t130 + 6.317828b194b130b2 <= 4.95
t55 - t3 + 6.364930b55b3b3 <= 4.98
t55 - t173 + 6.467454b55b173b3 <= 4.98
t164 - t3 + 6.405142b164b3b1 <= 5.29
t164 - t150 + 6.492064b164b150b1 <= 5.29
t164 - t173 + 6.525607b164b173b1 <= 5.29
t76 - t3 + 6.817919b76b3b3 <= 5.76
t76 - t9 + 6.945772b76b9b2 <= 5.76
t76 - t130 + 6.954896b76b130b2 <= 5.76
t76 - t173 + 6.925118b76b173b3 <= 5.76
t134 - t3 + 6.984260b134b3b3 <= 5.84
t134 - t9 + 7.047996b134b9b2 <= 5.84
t134 - t130 + 7.051261b134b130b2 <= 5.84
t134 - t173 + 6.995997b134b173b3 <= 5.84
t151 - t3 + 5.041630b151b3b3 <= 3.52
t151 - t173 + 5.163364b151b173b3 <= 3.52
t3 - t173 + 7.453077b3b173b1 <= 6.28
t3 - t173 + 7.453077b3b173b3 <= 6.28
t59 - t3 + 21.465714b59b3b1 <= 20.00
t59 - t150 + 21.246758b59b150b1 <= 20.00
t59 - t173 + 21.489988b59b173b1 <= 20.00
t118 - t3 + 21.427967b118b3b1 <= 20.00
t118 - t9 + 21.472534b118b9b2 <= 20.00
t118 - t130 + 21.470131b118b130b2 <= 20.00
t118 - t150 + 21.167198b118b150b1 <= 20.00
t118 - t173 + 21.402714b118b173b1 <= 20.00
t150 - t173 + 7.354768b150b173b1 <= 6.11

u108 - u118 + 6.545918c108c118c1 <= 4.93
u108 - u150 + 6.387256c108c150c1 <= 4.93
u5 - u118 + 6.867642c5c118c1 <= 5.13
u5 - u150 + 6.923393c5c150c1 <= 5.13
u115 - u118 + 6.462053c115c118c2 <= 4.93
u194 - u118 + 6.341836c194c118c2 <= 4.95
u164 - u118 + 6.640340c164c118c1 <= 5.29
u164 - u150 + 6.492064c164c150c1 <= 5.29
u76 - u118 + 7.126098c76c118c2 <= 5.76
u134 - u118 + 7.125402c134c118c2 <= 5.84
u3 - u118 + 21.427967c3c118c1 <= 20.00
u3 - u150 + 21.264154c3c150c1 <= 20.00
u9 - u118 + 21.472534c9c118c2 <= 20.00
u59 - u118 + 21.142517c59c118c1 <= 20.00
u59 - u150 + 21.246758c59c150c1 <= 20.00
u130 - u118 + 21.470131c130c118c2 <= 20.00
u150 - u118 + 7.557199c150c118c1 <= 6.39
u173 - u118 + 21.402714c173c118c1 <= 20.00
u173 - u150 + 21.244768c173c150c1 <= 20.00

r108 - r59 + 6.561147d108d59d1 <= 4.93
r108 - r118 + 6.545918d108d118d1 <= 4.93
r5 - r59 + 6.725225d5d59d1 <= 5.13
r5 - r118 + 6.867642d5d118d1 <= 5.13
r115 - r118 + 6.462053d115d118d2 <= 4.93
r194 - r118 + 6.341836d194d118d2 <= 4.95
r164 - r59 + 6.657198d164d59d1 <= 5.29
r164 - r118 + 6.640340d164d118d1 <= 5.29
r76 - r118 + 7.126098d76d118d2 <= 5.76
r134 - r118 + 7.125402d134d118d2 <= 5.84
r3 - r59 + 21.465714d3d59d1 <= 20.00
r3 - r118 + 21.427967d3d118d1 <= 20.00
r9 - r118 + 21.472534d9d118d2 <= 20.00
r59 - r118 + 7.462517d59d118d1 <= 6.32
r130 - r118 + 21.470131d130d118d2 <= 20.00
r150 - r59 + 21.246758d150d59d1 <= 20.00
r150 - r118 + 21.167198d150d118d1 <= 20.00
r173 - r59 + 21.489988d173d59d1 <= 20.00
r173 - r118 + 21.402714d173d118d1 <= 20.00

x108x3x1 + x5x3x1 + x164x3x1 + x52x3x3 + x55x3x3 + x76x3x3 + x134x3x3 + x151x3x3 
- x3x173x1 - x3x173x3 
- 2w3 <= 0

x115x9x2 + x194x9x2 + x76x9x2 + x134x9x2 

- 2w9 <= 0

x108x59x1 + x5x59x1 + x164x59x1 
- x59x118x1 
- 2w59 <= 0

x108x118x1 + x5x118x1 + x164x118x1 + x59x118x1 + x150x118x1 + x115x118x2 + x194x118x2 + x76x118x2 + x134x118x2 

- 2w118 <= 0

x115x130x2 + x194x130x2 + x76x130x2 + x134x130x2 

- 2w130 <= 0

x108x150x1 + x5x150x1 + x164x150x1 
- x150x118x1 
- 2w150 <= 0

x108x173x1 + x5x173x1 + x164x173x1 + x3x173x1 + x52x173x3 + x55x173x3 + x76x173x3 + x134x173x3 + x151x173x3 + x3x173x3 

- 2w173 <= 0

x108x3x1 + x5x3x1 + x164x3x1 + x52x3x3 + x55x3x3 + x76x3x3 + x134x3x3 + x151x3x3 
- x3x173x1 - x3x173x3 
- w3 >= 0

x115x9x2 + x194x9x2 + x76x9x2 + x134x9x2 

- w9 >= 0

x108x59x1 + x5x59x1 + x164x59x1 
- x59x118x1 
- w59 >= 0

x108x118x1 + x5x118x1 + x164x118x1 + x59x118x1 + x150x118x1 + x115x118x2 + x194x118x2 + x76x118x2 + x134x118x2 

- w118 >= 0

x115x130x2 + x194x130x2 + x76x130x2 + x134x130x2 

- w130 >= 0

x108x150x1 + x5x150x1 + x164x150x1 
- x150x118x1 
- w150 >= 0

x108x173x1 + x5x173x1 + x164x173x1 + x3x173x1 + x52x173x3 + x55x173x3 + x76x173x3 + x134x173x3 + x151x173x3 + x3x173x3 

- w173 >= 0

s108 - t108 + 4.93w108 <= 4.93
s52 - t52 + 4.13w52 <= 4.13
s5 - t5 + 5.13w5 <= 5.13
s115 - t115 + 4.93w115 <= 4.93
s194 - t194 + 4.95w194 <= 4.95
s55 - t55 + 4.98w55 <= 4.98
s164 - t164 + 5.29w164 <= 5.29
s76 - t76 + 5.76w76 <= 5.76
s134 - t134 + 5.84w134 <= 5.84
s151 - t151 + 3.52w151 <= 3.52
s3 - t3 + 6.28w3 <= 6.28
s9 - t9 + 6.96w9 <= 6.96
s59 - t59 + 6.32w59 <= 6.32
s118 - t118 + 6.66w118 <= 6.66
s130 - t130 + 6.96w130 <= 6.96
s150 - t150 + 6.11w150 <= 6.11
s173 - t173 + 6.55w173 <= 6.55
s108 - u108 + 4.93w108 <= 4.93
s52 - u52 + 4.13w52 <= 4.13
s5 - u5 + 5.13w5 <= 5.13
s115 - u115 + 4.93w115 <= 4.93
s194 - u194 + 4.95w194 <= 4.95
s55 - u55 + 4.98w55 <= 4.98
s164 - u164 + 5.29w164 <= 5.29
s76 - u76 + 5.76w76 <= 5.76
s134 - u134 + 5.84w134 <= 5.84
s151 - u151 + 3.52w151 <= 3.52
s3 - u3 + 6.28w3 <= 6.28
s9 - u9 + 6.96w9 <= 6.96
s59 - u59 + 6.32w59 <= 6.32
s118 - u118 + 6.66w118 <= 6.66
s130 - u130 + 6.96w130 <= 6.96
s150 - u150 + 6.11w150 <= 6.11
s173 - u173 + 6.55w173 <= 6.55
s108 - r108 + 4.93w108 <= 4.93
s52 - r52 + 4.13w52 <= 4.13
s5 - r5 + 5.13w5 <= 5.13
s115 - r115 + 4.93w115 <= 4.93
s194 - r194 + 4.95w194 <= 4.95
s55 - r55 + 4.98w55 <= 4.98
s164 - r164 + 5.29w164 <= 5.29
s76 - r76 + 5.76w76 <= 5.76
s134 - r134 + 5.84w134 <= 5.84
s151 - r151 + 3.52w151 <= 3.52
s3 - r3 + 6.28w3 <= 6.28
s9 - r9 + 6.96w9 <= 6.96
s59 - r59 + 6.32w59 <= 6.32
s118 - r118 + 6.66w118 <= 6.66
s130 - r130 + 6.96w130 <= 6.96
s150 - r150 + 6.11w150 <= 6.11
s173 - r173 + 6.55w173 <= 6.55

s108 - t108 - 4.93w108 >= -4.93
s52 - t52 - 4.13w52 >= -4.13
s5 - t5 - 5.13w5 >= -5.13
s115 - t115 - 4.93w115 >= -4.93
s194 - t194 - 4.95w194 >= -4.95
s55 - t55 - 4.98w55 >= -4.98
s164 - t164 - 5.29w164 >= -5.29
s76 - t76 - 5.76w76 >= -5.76
s134 - t134 - 5.84w134 >= -5.84
s151 - t151 - 3.52w151 >= -3.52
s3 - t3 - 6.28w3 >= -6.28
s9 - t9 - 6.96w9 >= -6.96
s59 - t59 - 20.00w59 >= -20.00
s118 - t118 - 20.00w118 >= -20.00
s130 - t130 - 6.96w130 >= -6.96
s150 - t150 - 6.11w150 >= -6.11
s173 - t173 - 6.55w173 >= -6.55


s108 - u108 - 4.93w108 >= -4.93
s52 - u52 - 4.13w52 >= -4.13
s5 - u5 - 5.13w5 >= -5.13
s115 - u115 - 4.93w115 >= -4.93
s194 - u194 - 4.95w194 >= -4.95
s55 - u55 - 4.98w55 >= -4.98
s164 - u164 - 5.29w164 >= -5.29
s76 - u76 - 5.76w76 >= -5.76
s134 - u134 - 5.84w134 >= -5.84
s151 - u151 - 3.52w151 >= -3.52
s3 - u3 - 20.00w3 >= -20.00
s9 - u9 - 20.00w9 >= -20.00
s59 - u59 - 20.00w59 >= -20.00
s118 - u118 - 6.66w118 >= -6.66
s130 - u130 - 20.00w130 >= -20.00
s150 - u150 - 6.39w150 >= -6.39
s173 - u173 - 20.00w173 >= -20.00


s108 - r108 - 4.93w108 >= -4.93
s52 - r52 - 4.13w52 >= -4.13
s5 - r5 - 5.13w5 >= -5.13
s115 - r115 - 4.93w115 >= -4.93
s194 - r194 - 4.95w194 >= -4.95
s55 - r55 - 4.98w55 >= -4.98
s164 - r164 - 5.29w164 >= -5.29
s76 - r76 - 5.76w76 >= -5.76
s134 - r134 - 5.84w134 >= -5.84
s151 - r151 - 3.52w151 >= -3.52
s3 - r3 - 20.00w3 >= -20.00
s9 - r9 - 20.00w9 >= -20.00
s59 - r59 - 6.32w59 >= -6.32
s118 - r118 - 6.76w118 >= -6.76
s130 - r130 - 20.00w130 >= -20.00
s150 - r150 - 20.00w150 >= -20.00
s173 - r173 - 20.00w173 >= -20.00


s3 + 6.28a108a3a1 <= 12.28
s3 + 6.28a52a3a3 <= 12.28
s3 + 6.28a5a3a1 <= 12.28
s3 + 6.28a55a3a3 <= 12.28
s3 + 6.28a164a3a1 <= 12.28
s3 + 6.28a76a3a3 <= 12.28
s3 + 6.28a134a3a3 <= 12.28
s3 + 6.28a151a3a3 <= 12.28
s9 + 6.96a115a9a2 <= 12.96
s9 + 6.96a194a9a2 <= 12.96
s9 + 6.96a76a9a2 <= 12.96
s9 + 6.96a134a9a2 <= 12.96
s59 + 6.32a108a59a1 <= 12.32
s59 + 6.32a5a59a1 <= 12.32
s59 + 6.32a164a59a1 <= 12.32
s118 + 6.66a108a118a1 <= 12.66
s118 + 6.66a5a118a1 <= 12.66
s118 + 6.66a115a118a2 <= 12.66
s118 + 6.66a194a118a2 <= 12.66
s118 + 6.66a164a118a1 <= 12.66
s118 + 6.66a76a118a2 <= 12.66
s118 + 6.66a134a118a2 <= 12.66
s118 + 6.66a59a118a1 <= 12.66
s118 + 6.66a150a118a1 <= 12.66
s130 + 6.96a115a130a2 <= 12.96
s130 + 6.96a194a130a2 <= 12.96
s130 + 6.96a76a130a2 <= 12.96
s130 + 6.96a134a130a2 <= 12.96
s150 + 6.11a108a150a1 <= 12.11
s150 + 6.11a5a150a1 <= 12.11
s150 + 6.11a164a150a1 <= 12.11
s173 + 6.55a108a173a1 <= 12.55
s173 + 6.55a52a173a3 <= 12.55
s173 + 6.55a5a173a1 <= 12.55
s173 + 6.55a55a173a3 <= 12.55
s173 + 6.55a164a173a1 <= 12.55
s173 + 6.55a76a173a3 <= 12.55
s173 + 6.55a134a173a3 <= 12.55
s173 + 6.55a151a173a3 <= 12.55
s173 + 6.55a3a173a1 <= 12.55
s173 + 6.55a3a173a3 <= 12.55

u118 - 6.0c108c118c1 > 0
u118 - 6.0c5c118c1 > 0
u118 - 6.0c115c118c2 > 0
u118 - 6.0c194c118c2 > 0
u118 - 6.0c164c118c1 > 0
u118 - 6.0c76c118c2 > 0
u118 - 6.0c134c118c2 > 0
u118 - 6.0c3c118c1 > 0
u118 - 6.0c9c118c2 > 0
u118 - 6.0c59c118c1 > 0
u118 - 6.0c130c118c2 > 0
u118 - 6.0c150c118c1 > 0
u118 - 6.0c173c118c1 > 0
u150 - 6.0c108c150c1 > 0
u150 - 6.0c5c150c1 > 0
u150 - 6.0c164c150c1 > 0
u150 - 6.0c3c150c1 > 0
u150 - 6.0c59c150c1 > 0
u150 - 6.0c173c150c1 > 0

r59 - 6.0d108d59d1 > 0
r59 - 6.0d5d59d1 > 0
r59 - 6.0d164d59d1 > 0
r59 - 6.0d3d59d1 > 0
r59 - 6.0d150d59d1 > 0
r59 - 6.0d173d59d1 > 0
r118 - 6.0d108d118d1 > 0
r118 - 6.0d5d118d1 > 0
r118 - 6.0d115d118d2 > 0
r118 - 6.0d194d118d2 > 0
r118 - 6.0d164d118d1 > 0
r118 - 6.0d76d118d2 > 0
r118 - 6.0d134d118d2 > 0
r118 - 6.0d3d118d1 > 0
r118 - 6.0d9d118d2 > 0
r118 - 6.0d59d118d1 > 0
r118 - 6.0d130d118d2 > 0
r118 - 6.0d150d118d1 > 0
r118 - 6.0d173d118d1 > 0


a108a3a1 + b108b3b1 <= 1
a52a3a3 + b52b3b3 <= 1
a5a3a1 + b5b3b1 <= 1
a55a3a3 + b55b3b3 <= 1
a164a3a1 + b164b3b1 <= 1
a76a3a3 + b76b3b3 <= 1
a134a3a3 + b134b3b3 <= 1
a151a3a3 + b151b3b3 <= 1
a115a9a2 + b115b9b2 <= 1
a194a9a2 + b194b9b2 <= 1
a76a9a2 + b76b9b2 <= 1
a134a9a2 + b134b9b2 <= 1
a108a59a1 + b108b59b1 <= 1
a5a59a1 + b5b59b1 <= 1
a164a59a1 + b164b59b1 <= 1
a108a118a1 + b108b118b1 <= 1
a5a118a1 + b5b118b1 <= 1
a115a118a2 + b115b118b2 <= 1
a194a118a2 + b194b118b2 <= 1
a164a118a1 + b164b118b1 <= 1
a76a118a2 + b76b118b2 <= 1
a134a118a2 + b134b118b2 <= 1
a59a118a1 + b59b118b1 <= 1
a150a118a1 + b150b118b1 <= 1
a115a130a2 + b115b130b2 <= 1
a194a130a2 + b194b130b2 <= 1
a76a130a2 + b76b130b2 <= 1
a134a130a2 + b134b130b2 <= 1
a108a150a1 + b108b150b1 <= 1
a5a150a1 + b5b150b1 <= 1
a164a150a1 + b164b150b1 <= 1
a108a173a1 + b108b173b1 <= 1
a52a173a3 + b52b173b3 <= 1
a5a173a1 + b5b173b1 <= 1
a55a173a3 + b55b173b3 <= 1
a164a173a1 + b164b173b1 <= 1
a76a173a3 + b76b173b3 <= 1
a134a173a3 + b134b173b3 <= 1
a151a173a3 + b151b173b3 <= 1
a3a173a1 + b3b173b1 <= 1
a3a173a3 + b3b173b3 <= 1


a108a3a1 + c108c3c1 <= 1
a52a3a3 + c52c3c3 <= 1
a5a3a1 + c5c3c1 <= 1
a55a3a3 + c55c3c3 <= 1
a164a3a1 + c164c3c1 <= 1
a76a3a3 + c76c3c3 <= 1
a134a3a3 + c134c3c3 <= 1
a151a3a3 + c151c3c3 <= 1
a115a9a2 + c115c9c2 <= 1
a194a9a2 + c194c9c2 <= 1
a76a9a2 + c76c9c2 <= 1
a134a9a2 + c134c9c2 <= 1
a108a59a1 + c108c59c1 <= 1
a5a59a1 + c5c59c1 <= 1
a164a59a1 + c164c59c1 <= 1
a108a118a1 + c108c118c1 <= 1
a5a118a1 + c5c118c1 <= 1
a115a118a2 + c115c118c2 <= 1
a194a118a2 + c194c118c2 <= 1
a164a118a1 + c164c118c1 <= 1
a76a118a2 + c76c118c2 <= 1
a134a118a2 + c134c118c2 <= 1
a59a118a1 + c59c118c1 <= 1
a150a118a1 + c150c118c1 <= 1
a115a130a2 + c115c130c2 <= 1
a194a130a2 + c194c130c2 <= 1
a76a130a2 + c76c130c2 <= 1
a134a130a2 + c134c130c2 <= 1
a108a150a1 + c108c150c1 <= 1
a5a150a1 + c5c150c1 <= 1
a164a150a1 + c164c150c1 <= 1
a108a173a1 + c108c173c1 <= 1
a52a173a3 + c52c173c3 <= 1
a5a173a1 + c5c173c1 <= 1
a55a173a3 + c55c173c3 <= 1
a164a173a1 + c164c173c1 <= 1
a76a173a3 + c76c173c3 <= 1
a134a173a3 + c134c173c3 <= 1
a151a173a3 + c151c173c3 <= 1
a3a173a1 + c3c173c1 <= 1
a3a173a3 + c3c173c3 <= 1


a108a3a1 + d108d3d1 <= 1
a52a3a3 + d52d3d3 <= 1
a5a3a1 + d5d3d1 <= 1
a55a3a3 + d55d3d3 <= 1
a164a3a1 + d164d3d1 <= 1
a76a3a3 + d76d3d3 <= 1
a134a3a3 + d134d3d3 <= 1
a151a3a3 + d151d3d3 <= 1
a115a9a2 + d115d9d2 <= 1
a194a9a2 + d194d9d2 <= 1
a76a9a2 + d76d9d2 <= 1
a134a9a2 + d134d9d2 <= 1
a108a59a1 + d108d59d1 <= 1
a5a59a1 + d5d59d1 <= 1
a164a59a1 + d164d59d1 <= 1
a108a118a1 + d108d118d1 <= 1
a5a118a1 + d5d118d1 <= 1
a115a118a2 + d115d118d2 <= 1
a194a118a2 + d194d118d2 <= 1
a164a118a1 + d164d118d1 <= 1
a76a118a2 + d76d118d2 <= 1
a134a118a2 + d134d118d2 <= 1
a59a118a1 + d59d118d1 <= 1
a150a118a1 + d150d118d1 <= 1
a115a130a2 + d115d130d2 <= 1
a194a130a2 + d194d130d2 <= 1
a76a130a2 + d76d130d2 <= 1
a134a130a2 + d134d130d2 <= 1
a108a150a1 + d108d150d1 <= 1
a5a150a1 + d5d150d1 <= 1
a164a150a1 + d164d150d1 <= 1
a108a173a1 + d108d173d1 <= 1
a52a173a3 + d52d173d3 <= 1
a5a173a1 + d5d173d1 <= 1
a55a173a3 + d55d173d3 <= 1
a164a173a1 + d164d173d1 <= 1
a76a173a3 + d76d173d3 <= 1
a134a173a3 + d134d173d3 <= 1
a151a173a3 + d151d173d3 <= 1
a3a173a1 + d3d173d1 <= 1
a3a173a3 + d3d173d3 <= 1

x108x3x1 - 1a108a3a1 <= 0
x108x59x1 - 2a108a59a1 <= 0
x108x118x1 - 1a108a118a1 <= 0
x108x150x1 - 2a108a150a1 <= 0
x108x173x1 - 1a108a173a1 <= 0
x52x3x3 - 1a52a3a3 <= 0
x52x173x3 - 1a52a173a3 <= 0
x5x3x1 - 1a5a3a1 <= 0
x5x59x1 - 2a5a59a1 <= 0
x5x118x1 - 1a5a118a1 <= 0
x5x150x1 - 2a5a150a1 <= 0
x5x173x1 - 1a5a173a1 <= 0
x115x9x2 - 2a115a9a2 <= 0
x115x118x2 - 1a115a118a2 <= 0
x115x130x2 - 2a115a130a2 <= 0
x194x9x2 - 2a194a9a2 <= 0
x194x118x2 - 1a194a118a2 <= 0
x194x130x2 - 2a194a130a2 <= 0
x55x3x3 - 1a55a3a3 <= 0
x55x173x3 - 1a55a173a3 <= 0
x164x3x1 - 1a164a3a1 <= 0
x164x59x1 - 2a164a59a1 <= 0
x164x118x1 - 1a164a118a1 <= 0
x164x150x1 - 2a164a150a1 <= 0
x164x173x1 - 1a164a173a1 <= 0
x76x3x3 - 1a76a3a3 <= 0
x76x9x2 - 2a76a9a2 <= 0
x76x118x2 - 1a76a118a2 <= 0
x76x130x2 - 2a76a130a2 <= 0
x76x173x3 - 1a76a173a3 <= 0
x134x3x3 - 1a134a3a3 <= 0
x134x9x2 - 2a134a9a2 <= 0
x134x118x2 - 1a134a118a2 <= 0
x134x130x2 - 2a134a130a2 <= 0
x134x173x3 - 1a134a173a3 <= 0
x151x3x3 - 1a151a3a3 <= 0
x151x173x3 - 1a151a173a3 <= 0
x3x173x1 - 1a3a173a1 <= 0
x3x173x3 - 1a3a173a3 <= 0
x59x118x1 - 1a59a118a1 <= 0
x150x118x1 - 1a150a118a1 <= 0
y108y3y1 - 1b108b3b1 <= 0
y108y150y1 - 2b108b150b1 <= 0
y108y173y1 - 1b108b173b1 <= 0
y52y3y3 - 1b52b3b3 <= 0
y52y173y3 - 1b52b173b3 <= 0
y5y3y1 - 1b5b3b1 <= 0
y5y150y1 - 2b5b150b1 <= 0
y5y173y1 - 1b5b173b1 <= 0
y115y9y2 - 2b115b9b2 <= 0
y115y130y2 - 2b115b130b2 <= 0
y194y9y2 - 2b194b9b2 <= 0
y194y130y2 - 2b194b130b2 <= 0
y55y3y3 - 1b55b3b3 <= 0
y55y173y3 - 1b55b173b3 <= 0
y164y3y1 - 1b164b3b1 <= 0
y164y150y1 - 2b164b150b1 <= 0
y164y173y1 - 1b164b173b1 <= 0
y76y3y3 - 1b76b3b3 <= 0
y76y9y2 - 2b76b9b2 <= 0
y76y130y2 - 2b76b130b2 <= 0
y76y173y3 - 1b76b173b3 <= 0
y134y3y3 - 1b134b3b3 <= 0
y134y9y2 - 2b134b9b2 <= 0
y134y130y2 - 2b134b130b2 <= 0
y134y173y3 - 1b134b173b3 <= 0
y151y3y3 - 1b151b3b3 <= 0
y151y173y3 - 1b151b173b3 <= 0
y3y173y1 - 1b3b173b1 <= 0
y3y173y3 - 1b3b173b3 <= 0
y59y3y1 - 1b59b3b1 <= 0
y59y150y1 - 2b59b150b1 <= 0
y59y173y1 - 1b59b173b1 <= 0
y118y3y1 - 1b118b3b1 <= 0
y118y9y2 - 2b118b9b2 <= 0
y118y130y2 - 2b118b130b2 <= 0
y118y150y1 - 2b118b150b1 <= 0
y118y173y1 - 1b118b173b1 <= 0
y150y173y1 - 1b150b173b1 <= 0
z108z118z1 - 1c108c118c1 <= 0
z108z150z1 - 2c108c150c1 <= 0
z5z118z1 - 1c5c118c1 <= 0
z5z150z1 - 2c5c150c1 <= 0
z115z118z2 - 1c115c118c2 <= 0
z194z118z2 - 1c194c118c2 <= 0
z164z118z1 - 1c164c118c1 <= 0
z164z150z1 - 2c164c150c1 <= 0
z76z118z2 - 1c76c118c2 <= 0
z134z118z2 - 1c134c118c2 <= 0
z3z118z1 - 1c3c118c1 <= 0
z3z150z1 - 2c3c150c1 <= 0
z9z118z2 - 1c9c118c2 <= 0
z59z118z1 - 1c59c118c1 <= 0
z59z150z1 - 2c59c150c1 <= 0
z130z118z2 - 1c130c118c2 <= 0
z150z118z1 - 1c150c118c1 <= 0
z173z118z1 - 1c173c118c1 <= 0
z173z150z1 - 2c173c150c1 <= 0
v108v59v1 - 2d108d59d1 <= 0
v108v118v1 - 1d108d118d1 <= 0
v5v59v1 - 2d5d59d1 <= 0
v5v118v1 - 1d5d118d1 <= 0
v115v118v2 - 1d115d118d2 <= 0
v194v118v2 - 1d194d118d2 <= 0
v164v59v1 - 2d164d59d1 <= 0
v164v118v1 - 1d164d118d1 <= 0
v76v118v2 - 1d76d118d2 <= 0
v134v118v2 - 1d134d118d2 <= 0
v3v59v1 - 2d3d59d1 <= 0
v3v118v1 - 1d3d118d1 <= 0
v9v118v2 - 1d9d118d2 <= 0
v59v118v1 - 1d59d118d1 <= 0
v130v118v2 - 1d130d118d2 <= 0
v150v59v1 - 2d150d59d1 <= 0
v150v118v1 - 1d150d118d1 <= 0
v173v59v1 - 2d173d59d1 <= 0
v173v118v1 - 1d173d118d1 <= 0

Bounds
s108 = 4.927498
t108 = 4.927498
u108 = 4.927498
r108 = 4.927498
s52 = 4.127326
t52 = 4.127326
u52 = 4.127326
r52 = 4.127326
s5 = 5.132191
t5 = 5.132191
u5 = 5.132191
r5 = 5.132191
s115 = 4.925977
t115 = 4.925977
u115 = 4.925977
r115 = 4.925977
s194 = 4.953106
t194 = 4.953106
u194 = 4.953106
r194 = 4.953106
s55 = 4.977919
t55 = 4.977919
u55 = 4.977919
r55 = 4.977919
s164 = 5.294186
t164 = 5.294186
u164 = 5.294186
r164 = 5.294186
s76 = 5.757919
t76 = 5.757919
u76 = 5.757919
r76 = 5.757919
s134 = 5.838658
t134 = 5.838658
u134 = 5.838658
r134 = 5.838658
s151 = 3.521630
t151 = 3.521630
u151 = 3.521630
r151 = 3.521630
5.28 <= s3 <= 6.28
5.96 <= s9 <= 6.96
5.32 <= s59 <= 6.32
5.76 <= s118 <= 6.66
5.96 <= s130 <= 6.96
5.39 <= s150 <= 6.11
5.55 <= s173 <= 6.55

5.28 <= t3 <= 6.28
5.96 <= t9 <= 6.96
0.00 <= t59 <= 20.00
0.00 <= t118 <= 20.00
5.96 <= t130 <= 6.96
5.11 <= t150 <= 6.11
5.55 <= t173 <= 6.55

0.00 <= u3 <= 20.00
0.00 <= u9 <= 20.00
0.00 <= u59 <= 20.00
5.66 <= u118 <= 6.66
0.00 <= u130 <= 20.00
5.39 <= u150 <= 6.39
0.00 <= u173 <= 20.00

0.00 <= r3 <= 20.00
0.00 <= r9 <= 20.00
5.32 <= r59 <= 6.32
5.76 <= r118 <= 6.76
0.00 <= r130 <= 20.00
0.00 <= r150 <= 20.00
0.00 <= r173 <= 20.00

General
x108x3x1 x108x59x1 x108x118x1 x108x150x1 x108x173x1 
x52x3x3 x52x173x3 
x5x3x1 x5x59x1 x5x118x1 x5x150x1 x5x173x1 
x115x9x2 x115x118x2 x115x130x2 
x194x9x2 x194x118x2 x194x130x2 
x55x3x3 x55x173x3 
x164x3x1 x164x59x1 x164x118x1 x164x150x1 x164x173x1 
x76x3x3 x76x9x2 x76x118x2 x76x130x2 x76x173x3 
x134x3x3 x134x9x2 x134x118x2 x134x130x2 x134x173x3 
x151x3x3 x151x173x3 
x3x173x1 x3x173x3 
x59x118x1 
x150x118x1 

y108y3y1 y108y150y1 y108y173y1 
y52y3y3 y52y173y3 
y5y3y1 y5y150y1 y5y173y1 
y115y9y2 y115y130y2 
y194y9y2 y194y130y2 
y55y3y3 y55y173y3 
y164y3y1 y164y150y1 y164y173y1 
y76y3y3 y76y9y2 y76y130y2 y76y173y3 
y134y3y3 y134y9y2 y134y130y2 y134y173y3 
y151y3y3 y151y173y3 
y3y173y1 y3y173y3 
y59y3y1 y59y150y1 y59y173y1 
y118y3y1 y118y9y2 y118y130y2 y118y150y1 y118y173y1 
y150y173y1 

z108z118z1 z108z150z1 
z5z118z1 z5z150z1 
z115z118z2 
z194z118z2 
z164z118z1 z164z150z1 
z76z118z2 
z134z118z2 
z3z118z1 z3z150z1 
z9z118z2 
z59z118z1 z59z150z1 
z130z118z2 
z150z118z1 
z173z118z1 z173z150z1 

v108v59v1 v108v118v1 
v5v59v1 v5v118v1 
v115v118v2 
v194v118v2 
v164v59v1 v164v118v1 
v76v118v2 
v134v118v2 
v3v59v1 v3v118v1 
v9v118v2 
v59v118v1 
v130v118v2 
v150v59v1 v150v118v1 
v173v59v1 v173v118v1 

Binaries
X3 X9 X59 X118 X130 X150 X173 
Y3 Y9 Y130 Y150 Y173 
Z118 Z150 
V59 V118 

w3 w9 w59 w118 w130 w150 w173 

a108a3a1 a108a59a1 a108a118a1 a108a150a1 a108a173a1 
a52a3a3 a52a173a3 
a5a3a1 a5a59a1 a5a118a1 a5a150a1 a5a173a1 
a115a9a2 a115a118a2 a115a130a2 
a194a9a2 a194a118a2 a194a130a2 
a55a3a3 a55a173a3 
a164a3a1 a164a59a1 a164a118a1 a164a150a1 a164a173a1 
a76a3a3 a76a9a2 a76a118a2 a76a130a2 a76a173a3 
a134a3a3 a134a9a2 a134a118a2 a134a130a2 a134a173a3 
a151a3a3 a151a173a3 
a3a173a1 a3a173a3 
a59a118a1 
a150a118a1 

b108b3b1 b108b150b1 b108b173b1 
b52b3b3 b52b173b3 
b5b3b1 b5b150b1 b5b173b1 
b115b9b2 b115b130b2 
b194b9b2 b194b130b2 
b55b3b3 b55b173b3 
b164b3b1 b164b150b1 b164b173b1 
b76b3b3 b76b9b2 b76b130b2 b76b173b3 
b134b3b3 b134b9b2 b134b130b2 b134b173b3 
b151b3b3 b151b173b3 
b3b173b1 b3b173b3 
b59b3b1 b59b150b1 b59b173b1 
b118b3b1 b118b9b2 b118b130b2 b118b150b1 b118b173b1 
b150b173b1 

c108c118c1 c108c150c1 
c5c118c1 c5c150c1 
c115c118c2 
c194c118c2 
c164c118c1 c164c150c1 
c76c118c2 
c134c118c2 
c3c118c1 c3c150c1 
c9c118c2 
c59c118c1 c59c150c1 
c130c118c2 
c150c118c1 
c173c118c1 c173c150c1 

d108d59d1 d108d118d1 
d5d59d1 d5d118d1 
d115d118d2 
d194d118d2 
d164d59d1 d164d118d1 
d76d118d2 
d134d118d2 
d3d59d1 d3d118d1 
d9d118d2 
d59d118d1 
d130d118d2 
d150d59d1 d150d118d1 
d173d59d1 d173d118d1 

End